Version identifier: 12.10.0.0 | 2019-11-26 | 843d4de
CPXPARAM_WorkMem                                 28672
Tried aggregator 2 times.
Aggregator did 45 substitutions.
Reduced MIP has 245 rows, 300 columns, and 1155 nonzeros.
Reduced MIP has 300 binaries, 0 generals, 0 SOSs, and 0 indicators.
Presolve time = 0,00 sec. (1,08 ticks)
Found incumbent of value 1345,000000 after 0,01 sec. (2,14 ticks)
Probing time = 0,00 sec. (0,45 ticks)
Tried aggregator 1 time.
Detecting symmetries...
MIP Presolve eliminated 55 rows and 0 columns.
MIP Presolve added 110 rows and 0 columns.
Reduced MIP has 300 rows, 300 columns, and 1210 nonzeros.
Reduced MIP has 300 binaries, 0 generals, 0 SOSs, and 0 indicators.
Presolve time = 0,00 sec. (1,52 ticks)
Probing time = 0,00 sec. (0,43 ticks)
Clique table members: 795.
MIP emphasis: balance optimality and feasibility.
MIP search method: dynamic search.
Parallel mode: deterministic, using up to 16 threads.
Root relaxation solution time = 0,00 sec. (1,26 ticks)

        Nodes                                         Cuts/
   Node  Left     Objective  IInf  Best Integer    Best Bound    ItCnt     Gap

*     0+    0                         1345,0000        0,0000           100,00%
*     0+    0                          632,0000        0,0000           100,00%
      0     0      269,0000   207      632,0000      269,0000      120   57,44%
*     0+    0                          628,0000      269,0000            57,17%
      0     0      269,0000   207      628,0000     Cuts: 100      166   57,17%
      0     0      269,2664   207      628,0000     Cuts: 175      266   57,12%
      0     0      270,9290   207      628,0000     Cuts: 175      311   56,86%
      0     0      271,3645   207      628,0000      Cuts: 98      325   56,79%
      0     0      271,6028   207      628,0000      Cuts: 66      333   56,75%
      0     0      301,2670   207      628,0000     Cuts: 175      538   52,03%
      0     0      302,9853   207      628,0000      Cuts: 66      569   51,75%
      0     0      303,1932   207      628,0000      Cuts: 21      574   51,72%
      0     0      303,3986   207      628,0000   ZeroHalf: 2      575   51,69%
      0     0      303,7180   207      628,0000   ZeroHalf: 1      576   51,64%
      0     0      303,7516   207      628,0000   ZeroHalf: 1      578   51,63%
      0     0      304,1208   207      628,0000       Cuts: 2      588   51,57%
      0     0      304,4918   207      628,0000       Cuts: 2      599   51,51%
      0     0      304,5011   207      628,0000      Cuts: 44      600   51,51%
*     0+    0                          574,0000      304,5011            46,95%
      0     2      304,5011   285      574,0000      311,7667      600   45,69%
Elapsed time = 0,23 sec. (127,33 ticks, tree = 0,02 MB, solutions = 4)
   1600   847      500,1066   158      574,0000      449,3049    53041   21,72%
   5133  2174        cutoff            574,0000      517,2379   144827    9,89%

Performing restart 1

Repeating presolve.
Tried aggregator 1 time.
MIP Presolve eliminated 15 rows and 14 columns.
MIP Presolve added 8 rows and 0 columns.
MIP Presolve modified 57 coefficients.
Reduced MIP has 293 rows, 286 columns, and 1125 nonzeros.
Reduced MIP has 286 binaries, 0 generals, 0 SOSs, and 0 indicators.
Presolve time = 0,00 sec. (1,10 ticks)
Tried aggregator 1 time.
Reduced MIP has 293 rows, 286 columns, and 1125 nonzeros.
Reduced MIP has 286 binaries, 0 generals, 0 SOSs, and 0 indicators.
Presolve time = 0,00 sec. (0,95 ticks)
Represolve time = 0,01 sec. (8,61 ticks)
   6388     0      317,9256   285      574,0000      Cuts: 18   205079    6,49%
   6388     0      321,7175   285      574,0000       Cuts: 5   205179    6,49%
   6388     0      325,9841   285      574,0000      Cuts: 12   205239    6,49%
   6388     0      328,6894   285      574,0000       Cuts: 6   205316    6,49%
   6388     0      334,5616   285      574,0000      Cuts: 12   205460    6,49%
   6388     2      334,5616   280      574,0000      536,7739   205460    6,49%
   7073   365      473,4549   220      574,0000      536,7739   228323    6,49%
*  7114+  375                          562,0000      536,7739             4,49%
   9072  1598      496,5863   204      562,0000      536,7739   316635    4,49%
  11699  2604        cutoff            562,0000      536,7739   421907    4,49%
  14339  3020        cutoff            562,0000      536,7739   527758    4,49%

Performing restart 2

Repeating presolve.
Tried aggregator 1 time.
Reduced MIP has 293 rows, 286 columns, and 1125 nonzeros.
Reduced MIP has 286 binaries, 0 generals, 0 SOSs, and 0 indicators.
Presolve time = 0,00 sec. (0,66 ticks)
Tried aggregator 1 time.
Reduced MIP has 293 rows, 286 columns, and 1125 nonzeros.
Reduced MIP has 286 binaries, 0 generals, 0 SOSs, and 0 indicators.
Presolve time = 0,00 sec. (0,95 ticks)
Represolve time = 0,02 sec. (14,87 ticks)
  14446     0      335,4242   229      562,0000   ZeroHalf: 2   558941    4,49%
  14446     0      335,4583   229      562,0000   ZeroHalf: 1   558948    4,49%
  14446     0      335,4751   229      562,0000   ZeroHalf: 1   558966    4,49%
  14446     0      335,5153   229      562,0000   ZeroHalf: 1   558980    4,49%
  14446     0      335,6006   229      562,0000   ZeroHalf: 3   558991    4,49%
  14446     0      336,2313   229      562,0000       Cuts: 7   559018    4,49%
  14446     2      336,2313   280      562,0000      536,7739   559018    4,49%
  17559   907        cutoff            562,0000      536,7739   650138    4,49%

Clique cuts applied:  57
Cover cuts applied:  335
Flow cuts applied:  13
Mixed integer rounding cuts applied:  35
Zero-half cuts applied:  7
Lift and project cuts applied:  1
Gomory fractional cuts applied:  24

Root node processing (before b&c):
  Real time             =    0,22 sec. (126,97 ticks)
Parallel b&c, 16 threads:
  Real time             =    3,11 sec. (2423,39 ticks)
  Sync time (average)   =    0,77 sec.
  Wait time (average)   =    0,00 sec.
                          ------------
Total (root+branch&cut) =    3,33 sec. (2550,37 ticks)
